set VV := 0 1 2 3 4 5 6 7 8 9 10 11 ;
set VS := 0 1 2 3 4 5 6 7 8 9 10 11 12 13 14 15 16 17 18 19 20 21 22 23 24 25 26 27 ;
param cv := 
0 11
1 12
2 13
3 10
4 19
5 20
6 11
7 16
8 10
9 15
10 25
11 22
;
param cs := 
0 31
1 29
2 28
3 27
4 26
5 28
6 37
7 34
8 31
9 28
10 30
11 36
12 21
13 20
14 24
15 36
16 26
17 31
18 34
19 26
20 34
21 38
22 34
23 25
24 27
25 23
26 21
27 31
;
param bv:	 0 1 2 3 4 5 6 7 8 9 10 11 := 
		0 0 10 0 16 0 0 0 0 0 24 0 0 
		1 0 0 0 0 0 0 0 0 0 0 0 0 
		2 0 0 0 0 0 10 0 0 0 0 0 0 
		3 0 0 0 0 20 0 0 25 23 24 0 0 
		4 0 0 0 0 0 0 0 0 0 0 0 0 
		5 0 0 0 0 0 0 0 16 0 0 0 0 
		6 0 0 0 0 0 0 0 0 0 17 0 0 
		7 0 0 0 0 0 0 0 0 0 0 0 0 
		8 0 0 0 0 0 0 0 0 0 11 13 0 
		9 0 0 0 0 0 0 0 0 0 0 0 16 
		10 0 0 0 0 0 0 0 0 0 0 0 0 
		11 0 0 0 0 0 0 0 0 0 0 0 0 
;
param bs:	 0 1 2 3 4 5 6 7 8 9 10 11 12 13 14 15 16 17 18 19 20 21 22 23 24 25 26 27 := 
		0 0 0 0 0 0 0 0 0 36 0 0 0 0 0 0 0 32 0 0 0 0 0 27 0 0 0 0 0 
		1 0 0 0 0 0 0 0 0 0 0 0 0 0 0 0 0 0 0 0 0 0 0 25 0 0 31 0 0 
		2 0 0 0 32 0 0 0 0 0 0 0 0 0 0 0 0 0 0 0 0 0 0 0 0 0 0 0 0 
		3 0 0 32 0 0 0 0 0 0 0 0 0 0 0 0 0 0 0 0 0 0 0 27 0 0 0 0 0 
		4 0 0 0 0 0 0 32 0 0 0 0 0 22 0 0 32 0 0 0 0 0 0 0 0 0 0 0 0 
		5 0 0 0 0 0 0 0 0 0 0 0 0 0 0 0 0 25 0 40 0 23 0 0 0 29 0 0 0 
		6 0 0 0 0 32 0 0 0 0 0 0 0 33 23 0 0 0 0 0 0 0 0 0 0 0 0 0 0 
		7 0 0 0 0 0 0 0 0 0 0 26 38 0 0 0 0 33 0 0 0 36 0 0 0 0 0 0 0 
		8 36 0 0 0 0 0 0 0 0 0 0 31 0 23 0 0 0 0 0 0 0 0 0 0 0 0 0 29 
		9 0 0 0 0 0 0 0 0 0 0 0 0 23 0 0 0 0 0 0 24 0 0 0 0 0 0 0 0 
		10 0 0 0 0 0 0 0 26 0 0 0 0 0 39 0 0 0 0 0 0 0 0 0 0 0 33 0 0 
		11 0 0 0 0 0 0 0 38 31 0 0 0 0 0 0 25 0 0 0 0 0 0 0 0 0 0 0 0 
		12 0 0 0 0 22 0 33 0 0 23 0 0 0 38 0 0 0 0 0 0 0 0 0 0 28 0 0 0 
		13 0 0 0 0 0 0 23 0 23 0 39 0 38 0 0 0 0 0 0 0 0 0 0 0 0 0 0 0 
		14 0 0 0 0 0 0 0 0 0 0 0 0 0 0 0 0 0 0 0 0 0 33 0 25 0 0 0 0 
		15 0 0 0 0 32 0 0 0 0 0 0 25 0 0 0 0 0 0 0 0 0 0 0 0 31 0 0 0 
		16 32 0 0 0 0 25 0 33 0 0 0 0 0 0 0 0 0 0 0 0 0 0 0 0 0 0 0 0 
		17 0 0 0 0 0 0 0 0 0 0 0 0 0 0 0 0 0 0 0 0 27 0 0 0 0 0 0 0 
		18 0 0 0 0 0 40 0 0 0 0 0 0 0 0 0 0 0 0 0 0 35 0 0 0 23 0 0 0 
		19 0 0 0 0 0 0 0 0 0 24 0 0 0 0 0 0 0 0 0 0 0 0 0 0 0 0 0 0 
		20 0 0 0 0 0 23 0 36 0 0 0 0 0 0 0 0 0 27 35 0 0 33 0 24 0 0 0 0 
		21 0 0 0 0 0 0 0 0 0 0 0 0 0 0 33 0 0 0 0 0 33 0 0 0 0 0 40 0 
		22 27 25 0 27 0 0 0 0 0 0 0 0 0 0 0 0 0 0 0 0 0 0 0 0 0 26 0 0 
		23 0 0 0 0 0 0 0 0 0 0 0 0 0 0 25 0 0 0 0 0 24 0 0 0 0 0 0 0 
		24 0 0 0 0 0 29 0 0 0 0 0 0 28 0 0 31 0 0 23 0 0 0 0 0 0 0 0 0 
		25 0 31 0 0 0 0 0 0 0 0 33 0 0 0 0 0 0 0 0 0 0 0 26 0 0 0 0 0 
		26 0 0 0 0 0 0 0 0 0 0 0 0 0 0 0 0 0 0 0 0 0 40 0 0 0 0 0 0 
		27 0 0 0 0 0 0 0 0 29 0 0 0 0 0 0 0 0 0 0 0 0 0 0 0 0 0 0 0 
;
